Problem:    
Rows:       260
Columns:    89 (72 integer, 72 binary)
Non-zeros:  974
Status:     INTEGER OPTIMAL
Objective:  value = 140.163961 (MINimum)

   No.   Row name        Activity     Lower bound   Upper bound
------ ------------    ------------- ------------- -------------
     1 r.5                   140.164             0               
     2 r.6                   67.8698      -932.906               
     3 r.7                   1140.16             0               
     4 r.8                   -932.13      -961.494               
     5 r.9                   1140.16             0               
     6 r.10                 -905.277      -932.697               
     7 r.11                  140.164             0               
     8 r.12                 -951.307      -961.594               
     9 r.13                  1140.16             0               
    10 r.14                 -978.025      -996.041               
    11 r.15                  140.164             0               
    12 r.16                  72.8584      -994.842               
    13 r.17                  1140.16             0               
    14 r.18                 -894.426      -991.871               
    15 r.19                  140.164             0               
    16 r.20                 -981.734       -992.02               
    17 r.21                  140.164             0               
    18 r.22                  67.8698       -968.78               
    19 r.23                  1140.16             0               
    20 r.24                 -970.636      -980.923               
    21 r.25                  1140.16             0               
    22 r.26                 -997.881      -997.881               
    23 r.27                  140.164             0               
    24 r.28                  -996.37       -996.37               
    25 r.29                  140.164             0               
    26 r.30                  140.164      -934.835               
    27 r.31                  1140.16             0               
    28 r.32                 -859.836      -968.133               
    29 r.33                  140.164             0               
    30 r.34                  140.164      -895.226               
    31 r.35                  1140.16             0               
    32 r.36                 -891.703      -959.573               
    33 r.37                        1             1             = 
    34 r.38                        1             1             = 
    35 r.39                        1             1             = 
    36 r.40                        1             1             = 
    37 r.41                        1             1             = 
    38 r.42                        1             1             = 
    39 r.43                        1             1             = 
    40 r.44                        1             1             = 
    41 r.45                     1001             2               
    42 r.46                    -1001         -1001               
    43 r.47                  2026.85      -932.697               
    44 r.48                     1001             2               
    45 r.49                    -1001         -1001               
    46 r.50                  980.823      -961.594               
    47 r.51                     1001             2               
    48 r.52                    -1001         -1001               
    49 r.53                  1954.11      -996.041               
    50 r.54                     1001             2               
    51 r.55                    -1001         -1001               
    52 r.56                  2004.99      -994.842               
    53 r.57                     1001             2               
    54 r.58                    -1001         -1001               
    55 r.59                   2037.7      -991.871               
    56 r.60                     1001             2               
    57 r.61                    -1001         -1001               
    58 r.62                  950.396       -992.02               
    59 r.63                     1000             2               
    60 r.64                    -1000         -1001               
    61 r.65                     2000       -968.78               
    62 r.66                        2             2               
    63 r.67                       -2         -1001               
    64 r.68                 -38.5061      -980.923               
    65 r.69                  57.5834      -932.906               
    66 r.70                 -942.417      -961.494               
    67 r.71                  1071.72      -932.906               
    68 r.72                  71.7223      -961.494               
    69 r.73                  72.2941      -934.835               
    70 r.74                 -927.706      -968.133               
    71 r.75                  72.2941      -934.835               
    72 r.76                 -927.706      -968.133               
    73 r.77                  72.2941      -895.226               
    74 r.78                 -959.573      -959.573               
    75 r.79                  72.2941      -895.226               
    76 r.80                 -959.573      -959.573               
    77 r.81                     1001             2               
    78 r.82                    -1001         -1001               
    79 r.83                  1970.42       67.0944               
    80 r.84                     1001             2               
    81 r.85                    -1001         -1001               
    82 r.86                  3021.67       38.5061               
    83 r.87                        2             2               
    84 r.88                       -2         -1001               
    85 r.89                 -75.4706      -996.041               
    86 r.90                     1000             2               
    87 r.91                    -1000         -1001               
    88 r.92                  3026.66      -994.842               
    89 r.93                        2             2               
    90 r.94                       -2         -1001               
    91 r.95                 -991.871      -991.871               
    92 r.96                     1000             2               
    93 r.97                    -1000         -1001               
    94 r.98                  1972.07       -992.02               
    95 r.99                     1001             2               
    96 r.100                   -1001         -1001               
    97 r.101                 1970.42       -968.78               
    98 r.102                    1001             2               
    99 r.103                   -1001         -1001               
   100 r.104                 2983.17      -980.923               
   101 r.105                -915.563      -932.697               
   102 r.106                -961.594      -961.594               
   103 r.107                 98.5759      -932.697               
   104 r.108                 52.5454      -961.594               
   105 r.109                 42.7181      -934.835               
   106 r.110                -957.282      -968.133               
   107 r.111                 1093.97      -934.835               
   108 r.112                 93.9654      -968.133               
   109 r.113                    1001             2               
   110 r.114                   -1001         -1001               
   111 r.115                 2042.72      -895.226               
   112 r.116                    1001             2               
   113 r.117                   -1001         -1001               
   114 r.118                  3062.1      -959.573               
   115 r.119                    1001             2               
   116 r.120                   -1001         -1001               
   117 r.121                 2040.45       67.0944               
   118 r.122                    1001             2               
   119 r.123                   -1001         -1001               
   120 r.124                    2000       38.5061               
   121 r.125                       2             2               
   122 r.126                      -2         -1001               
   123 r.127                  67.303        67.303               
   124 r.128                    1000             2               
   125 r.129                   -1000         -1001               
   126 r.130                 980.823       38.4064               
   127 r.131                       2             2               
   128 r.132                      -2         -1001               
   129 r.133                -921.846      -991.871               
   130 r.134                    1000             2               
   131 r.135                   -1000         -1001               
   132 r.136                 950.396       -992.02               
   133 r.137                    1001             2               
   134 r.138                   -1001         -1001               
   135 r.139                 2040.45       -968.78               
   136 r.140                    1001             2               
   137 r.141                   -1001         -1001               
   138 r.142                 1961.49      -980.923               
   139 r.143                -988.311      -996.041               
   140 r.144                  62.572      -994.842               
   141 r.145                 25.8278      -996.041               
   142 r.146                 1076.71      -994.842               
   143 r.147                 112.744      -934.835               
   144 r.148                -887.256      -968.133               
   145 r.149                 72.2941      -934.835               
   146 r.150                -927.706      -968.133               
   147 r.151                 112.744      -895.226               
   148 r.152                -919.123      -959.573               
   149 r.153                 72.2941      -895.226               
   150 r.154                -959.573      -959.573               
   151 r.155                    1001             2               
   152 r.156                   -1001         -1001               
   153 r.157                 1959.57       67.0944               
   154 r.158                    1001             2               
   155 r.159                   -1001         -1001               
   156 r.160                  3052.1       38.5061               
   157 r.161                       2             2               
   158 r.162                      -2         -1001               
   159 r.163                 986.426        67.303               
   160 r.164                    1000             2               
   161 r.165                   -1000         -1001               
   162 r.166                 2032.92       38.4064               
   163 r.167                       2             2               
   164 r.168                      -2         -1001               
   165 r.169                 913.678       3.95891               
   166 r.170                    1000             2               
   167 r.171                   -1000         -1001               
   168 r.172                 3057.09       5.15818               
   169 r.173                    1001             2               
   170 r.174                   -1001         -1001               
   171 r.175                 1959.57       -968.78               
   172 r.176                    1001             2               
   173 r.177                   -1001         -1001               
   174 r.178                 3013.59      -980.923               
   175 r.179                -904.712      -991.871               
   176 r.180                 -992.02       -992.02               
   177 r.181                 109.427      -991.871               
   178 r.182                 22.1188       -992.02               
   179 r.183                 31.8669      -934.835               
   180 r.184                -968.133      -968.133               
   181 r.185                 1124.39      -934.835               
   182 r.186                 124.392      -968.133               
   183 r.187                    1001             2               
   184 r.188                   -1001         -1001               
   185 r.189                 2031.87      -895.226               
   186 r.190                    1001             2               
   187 r.191                   -1001         -1001               
   188 r.192                 3092.53      -959.573               
   189 r.193                    1000             2               
   190 r.194                   -1000         -1001               
   191 r.195                    2000       67.0944               
   192 r.196                       2             2               
   193 r.197                      -2         -1001               
   194 r.198                  38.506       38.5061               
   195 r.199                    1001             2               
   196 r.200                   -1001         -1001               
   197 r.201                 2026.85        67.303               
   198 r.202                    1001             2               
   199 r.203                   -1001         -1001               
   200 r.204                 1019.33       38.4064               
   201 r.205                    1001             2               
   202 r.206                   -1001         -1001               
   203 r.207                 1954.11       3.95891               
   204 r.208                    1001             2               
   205 r.209                   -1001         -1001               
   206 r.210                 2043.49       5.15818               
   207 r.211                    1001             2               
   208 r.212                   -1001         -1001               
   209 r.213                  2037.7        8.1286               
   210 r.214                    1001             2               
   211 r.215                   -1001         -1001               
   212 r.216                 988.902       7.97982               
   213 r.217                 57.5834       -968.78               
   214 r.218                -980.923      -980.923               
   215 r.219                 1071.72       -968.78               
   216 r.220                 33.2163      -980.923               
   217 r.221                    1000             2               
   218 r.222                   -1000         -1001               
   219 r.223                 2072.29      -934.835               
   220 r.224                       2             2               
   221 r.225                      -2         -1001               
   222 r.226                  -889.2      -968.133               
   223 r.227                 72.2941      -895.226               
   224 r.228                -959.573      -959.573               
   225 r.229                   110.8      -895.226               
   226 r.230                -921.067      -959.573               
   227 r.231                 129.878      -934.835               
   228 r.232                -870.122      -968.133               
   229 r.233                 1144.02      -934.835               
   230 r.234                 144.016      -968.133               
   231 r.235                    1000             2               
   232 r.236                   -1000         -1001               
   233 r.237                 1927.71       31.2198               
   234 r.238                       2             2               
   235 r.239                      -2         -1001               
   236 r.240                   889.2       19.0774               
   237 r.241                    1000             2               
   238 r.242                   -1000         -1001               
   239 r.243                    2000      -895.226               
   240 r.244                       2             2               
   241 r.245                      -2         -1001               
   242 r.246                -31.8669      -959.573               
   243 r.247                    1001             2               
   244 r.248                   -1001         -1001               
   245 r.249                 1954.56        67.303               
   246 r.250                    1001             2               
   247 r.251                   -1001         -1001               
   248 r.252                 940.396       38.4064               
   249 r.253                    1001             2               
   250 r.254                   -1001         -1001               
   251 r.255                 1965.41        8.1286               
   252 r.256                    1001             2               
   253 r.257                   -1001         -1001               
   254 r.258                 909.969       7.97982               
   255 r.259                    1000             2               
   256 r.260                   -1000         -1001               
   257 r.261                    2000       65.1654               
   258 r.262                       2             2               
   259 r.263                      -2         -1001               
   260 r.264                 31.8669       31.8669               

   No. Column name       Activity     Lower bound   Upper bound
------ ------------    ------------- ------------- -------------
     1 tt                    140.164             0               
     2 s_1_1        *              0             0             1 
     3 t_1_1                 72.2941             0               
     4 s_1_8        *              0             0             1 
     5 s_1_7        *              0             0             1 
     6 s_2_1        *              1             0             1 
     7 t_2_1                 72.2941             0               
     8 s_2_8        *              1             0             1 
     9 s_2_7        *              1             0             1 
    10 s_1_2        *              1             0             1 
    11 t_1_2                 42.7181             0               
    12 s_2_2        *              0             0             1 
    13 t_2_2                 1093.97             0               
    14 s_1_3        *              1             0             1 
    15 t_1_3                 112.744             0               
    16 s_2_3        *              0             0             1 
    17 t_2_3                 72.2941             0               
    18 s_1_4        *              1             0             1 
    19 t_1_4                 31.8669             0               
    20 s_2_4        *              0             0             1 
    21 t_2_4                 1124.39             0               
    22 s_1_5        *              0             0             1 
    23 t_1_5                 72.2941             0               
    24 s_2_5        *              1             0             1 
    25 t_2_5                   110.8             0               
    26 s_1_6        *              1             0             1 
    27 t_1_6                 129.878             0               
    28 s_2_6        *              0             0             1 
    29 t_2_6                 1144.02             0               
    30 t_1_7                       0             0               
    31 t_2_7                       0             0               
    32 t_1_8                       0             0               
    33 t_2_8                 31.8669             0               
    34 r_1_1_2      *              1             0             1 
    35 u_1_1_2      *              0             0             1 
    36 r_2_1_2      *              1             0             1 
    37 u_2_1_2      *              0             0             1 
    38 r_1_1_3      *              1             0             1 
    39 u_1_1_3      *              0             0             1 
    40 r_2_1_3      *              1             0             1 
    41 u_2_1_3      *              0             0             1 
    42 r_1_1_4      *              1             0             1 
    43 u_1_1_4      *              0             0             1 
    44 r_2_1_4      *              1             0             1 
    45 u_2_1_4      *              0             0             1 
    46 r_1_1_5      *              1             0             1 
    47 u_1_1_5      *              0             0             1 
    48 r_2_1_5      *              0             0             1 
    49 u_2_1_5      *              0             0             1 
    50 r_1_2_3      *              0             0             1 
    51 u_1_2_3      *              0             0             1 
    52 r_2_2_3      *              1             0             1 
    53 u_2_2_3      *              0             0             1 
    54 r_1_2_4      *              0             0             1 
    55 u_1_2_4      *              1             0             1 
    56 r_2_2_4      *              1             0             1 
    57 u_2_2_4      *              0             0             1 
    58 r_1_2_5      *              1             0             1 
    59 u_1_2_5      *              0             0             1 
    60 r_2_2_5      *              1             0             1 
    61 u_2_2_5      *              0             0             1 
    62 r_1_2_8      *              1             0             1 
    63 u_1_2_8      *              0             0             1 
    64 r_2_2_8      *              1             0             1 
    65 u_2_2_8      *              0             0             1 
    66 r_1_3_4      *              0             0             1 
    67 u_1_3_4      *              1             0             1 
    68 r_2_3_4      *              1             0             1 
    69 u_2_3_4      *              0             0             1 
    70 r_1_3_5      *              1             0             1 
    71 u_1_3_5      *              0             0             1 
    72 r_2_3_5      *              1             0             1 
    73 u_2_3_5      *              0             0             1 
    74 r_1_4_5      *              1             0             1 
    75 u_1_4_5      *              0             0             1 
    76 r_2_4_5      *              1             0             1 
    77 u_2_4_5      *              0             0             1 
    78 r_1_4_8      *              1             0             1 
    79 u_1_4_8      *              0             0             1 
    80 r_2_4_8      *              1             0             1 
    81 u_2_4_8      *              0             0             1 
    82 r_1_5_7      *              1             0             1 
    83 u_1_5_7      *              0             0             1 
    84 r_2_5_7      *              0             0             1 
    85 u_2_5_7      *              1             0             1 
    86 r_1_7_8      *              1             0             1 
    87 u_1_7_8      *              0             0             1 
    88 r_2_7_8      *              0             0             1 
    89 u_2_7_8      *              0             0             1 

Integer feasibility conditions:

KKT.PE: max.abs.err = 4.55e-13 on row 100
        max.rel.err = 1.10e-16 on row 165
        High quality

KKT.PB: max.abs.err = 1.14e-13 on row 91
        max.rel.err = 3.60e-16 on row 194
        High quality

End of output
